N = 7;
H = 5;
T = 2;

avail = array3d(1..N, 1..H, 1..T, [6, 10, 0, 0, 3, 0, 2, 9, 6, 7, 0, 4, 7, 1, 1, 3, 6, 4, 4, 10, 7, 3, 4, 2, 1, 4, 5, 4, 10, 10, 10, 0, 3, 5, 6, 4, 3, 4, 10, 2, 1, 5, 3, 6, 3, 3, 1, 1, 4, 6, 2, 1, 10, 7, 7, 5, 9, 2, 9, 1, 1, 7, 3, 10, 10, 1, 8, 2, 10, 7]);

r = array2d(1..H, 1..T, [2, 2, 2, 1, 3, 4, 3, 2, 2, 2]);
